out/bwp_3_13_1_lp.out
22
2 1    2 3
-0 4    2 4
2 5    2 7
-0 -0    1 3
-0 5    1 8
-0 9    1 12
-0 13    1 16
1 18    2 21
2 -0    2 0
1 17    1 17
2 8    2 12
2 13    2 17
-0 17    0 21
